BAYES
4
2 2 2 2
4
3 3 2 0
4 3 0 2 1
1 2
2 2 3

8
1.00 0.00 0.13 0.87 0.93 0.07 0.00 1.00

16
0.53 0.47 1.00 0.00 0.13 0.87 1.00 0.00 0.53 0.47 0.67 0.33 0.67 0.33 0.27 0.73

2
0.20 0.80

4
0.20 0.80 0.00 1.00

